c This is a random SAT instance with 10 variables and 20 clauses
p cnf 10 20
10 3 0
-10 4 5 1 0
10 -1 -3 -9 -2 1 -7 9 4 3 0
5 -6 2 -5 9 -2 -10 -7 0
3 4 -2 6 -8 -10 -7 0
7 -7 6 -1 -3 1 0
-1 8 0
-5 -7 -6 -4 0
-7 9 -2 -3 6 0
9 -2 -4 0
-3 2 0
-7 3 5 1 -8 -6 -5 4 -3 0
9 8 0
-1 8 7 -8 10 9 0
5 6 -1 8 -4 -9 7 10 9 -10 0
6 7 9 -10 -9 8 0
8 1 2 -1 0
-10 -5 -8 -7 0
-1 -2 0
1 -5 4 -9 -4 9 -6 6 -8 5 0